4 100 2005
4 9 8 10 6 11 7 11 10 10
3 3 4 4
8 2 1
9 9 5
9 2 5 8
3 3 6 7
0 35.0 35.0 0.0 0.0 0 230
2 41.0 49.0 10.0 10.0 0 204 41 1 0 1 0 0 0 0 0 0 0
3 35.0 17.0 10.0 7.0 0 202 91 0 0 1 0 1 0 1 0 0 0
4 55.0 45.0 10.0 13.0 0 197 30 0 1 0 0 0 1 0 0 1 0
5 55.0 20.0 10.0 19.0 139 169 78 0 0 0 0 0 1 0 0 0 0
6 15.0 30.0 10.0 26.0 0 199 38 0 1 1 0 0 0 0 0 0 0
7 25.0 30.0 10.0 3.0 0 208 50 0 0 0 0 0 1 0 0 0 0
8 20.0 50.0 10.0 5.0 0 198 10 0 0 0 0 0 0 0 0 0 1
9 10.0 43.0 10.0 9.0 85 115 19 0 0 1 0 1 0 0 0 0 0
10 55.0 60.0 10.0 16.0 87 117 75 0 0 0 0 0 1 0 0 0 0
11 30.0 60.0 10.0 16.0 0 194 70 0 0 0 0 1 1 0 0 1 0
12 20.0 65.0 10.0 12.0 57 87 86 0 0 0 0 0 0 0 1 0 0
13 50.0 35.0 10.0 19.0 0 205 1 0 0 0 0 0 0 0 0 0 1
14 30.0 25.0 10.0 23.0 149 179 77 0 1 1 0 0 0 0 1 0 1
15 15.0 10.0 10.0 20.0 0 187 53 0 0 0 0 1 0 0 0 0 0
16 30.0 5.0 10.0 8.0 51 81 63 0 0 0 0 1 0 0 0 0 1
17 10.0 20.0 10.0 19.0 0 190 8 0 0 0 1 0 0 0 0 0 0
18 5.0 30.0 10.0 2.0 0 189 60 0 0 0 0 0 0 1 0 0 0
19 20.0 40.0 10.0 12.0 0 204 17 0 0 0 1 1 0 0 0 0 0
20 15.0 60.0 10.0 17.0 0 187 46 1 0 0 1 0 0 0 0 0 0
21 45.0 65.0 10.0 9.0 0 188 40 0 0 0 0 0 0 1 0 0 0
22 45.0 20.0 10.0 11.0 0 201 8 0 0 0 0 1 0 1 0 0 0
23 45.0 10.0 10.0 18.0 0 193 44 1 0 0 0 0 0 0 0 0 0
24 55.0 5.0 10.0 29.0 58 88 84 0 0 0 1 0 0 0 0 0 1
25 65.0 35.0 10.0 3.0 0 190 19 1 0 0 1 1 0 0 0 0 0
26 65.0 20.0 10.0 6.0 156 186 20 0 0 0 0 0 0 0 0 0 1
27 45.0 30.0 10.0 17.0 0 208 42 0 0 0 0 0 1 0 0 0 0
28 35.0 40.0 10.0 16.0 0 215 43 0 0 0 1 0 0 0 0 0 0
29 41.0 37.0 10.0 16.0 0 213 65 0 0 0 0 1 0 0 1 0 0
30 64.0 42.0 10.0 9.0 0 190 3 0 0 1 0 1 1 0 0 0 0
31 40.0 60.0 10.0 21.0 0 194 28 0 0 1 0 0 0 0 0 0 1
32 31.0 52.0 10.0 27.0 0 202 40 0 0 0 0 0 1 0 1 0 1
33 35.0 69.0 10.0 23.0 0 186 69 0 0 0 0 0 0 0 1 0 0
34 53.0 52.0 10.0 11.0 0 195 25 0 1 0 0 0 1 0 0 1 1
35 65.0 55.0 10.0 14.0 0 183 60 1 0 0 0 0 0 0 1 0 0
36 63.0 65.0 10.0 8.0 0 178 73 1 1 1 0 0 0 0 0 0 0
37 2.0 60.0 10.0 5.0 0 178 72 0 0 0 0 0 1 0 0 0 0
38 20.0 20.0 10.0 8.0 0 198 72 0 0 0 1 1 0 0 0 0 0
39 5.0 5.0 10.0 16.0 73 103 50 0 0 0 0 0 0 1 0 0 0
40 60.0 12.0 10.0 31.0 0 186 75 1 0 0 0 0 1 0 0 1 0
41 40.0 25.0 10.0 9.0 0 208 21 0 1 1 0 1 0 0 0 1 1
42 42.0 7.0 10.0 5.0 0 191 84 0 0 0 0 0 0 1 0 0 0
43 24.0 12.0 10.0 5.0 0 194 54 0 0 0 1 0 0 0 0 0 0
44 23.0 3.0 10.0 7.0 0 185 72 1 0 0 0 0 0 0 0 0 0
45 11.0 14.0 10.0 18.0 59 89 76 0 0 0 0 0 0 0 0 1 0
46 6.0 38.0 10.0 16.0 0 190 37 1 0 1 1 0 0 0 0 0 0
47 2.0 48.0 10.0 1.0 0 184 75 0 0 0 0 1 0 0 1 1 0
48 8.0 56.0 10.0 27.0 0 185 22 0 0 1 0 0 0 0 0 0 0
49 13.0 52.0 10.0 36.0 0 192 48 0 0 0 0 0 0 1 0 0 0
50 6.0 68.0 10.0 30.0 0 176 4 0 1 1 1 0 1 0 0 0 0
51 47.0 47.0 10.0 13.0 0 203 24 0 0 0 1 0 1 0 0 0 1
52 49.0 58.0 10.0 10.0 0 193 20 0 0 0 0 1 1 0 1 0 1
53 27.0 43.0 10.0 9.0 0 208 23 0 0 0 0 0 1 0 0 0 0
54 37.0 31.0 10.0 14.0 85 115 66 0 0 0 0 0 1 1 0 1 0
55 57.0 29.0 10.0 18.0 0 197 74 0 0 0 0 0 0 1 0 0 0
56 63.0 23.0 10.0 2.0 126 156 23 0 0 0 0 0 0 0 1 0 0
57 53.0 12.0 10.0 6.0 0 190 32 1 1 0 0 0 1 0 0 0 1
58 32.0 12.0 10.0 7.0 0 196 36 0 0 0 0 0 1 0 0 0 0
59 36.0 26.0 10.0 18.0 180 210 75 0 1 0 1 0 0 0 0 0 1
60 21.0 24.0 10.0 28.0 0 202 73 0 0 0 0 1 1 1 0 0 0
61 17.0 34.0 10.0 3.0 0 201 0 0 0 0 0 0 1 0 0 0 1
62 12.0 24.0 10.0 13.0 0 194 12 0 0 1 0 1 1 0 1 0 0
63 24.0 58.0 10.0 19.0 48 78 70 0 1 0 1 0 0 0 0 0 0
64 27.0 69.0 10.0 10.0 0 185 90 0 0 0 1 1 0 1 0 0 0
65 15.0 77.0 10.0 9.0 0 173 58 0 0 0 0 0 1 0 0 0 0
66 62.0 77.0 10.0 20.0 0 170 37 0 1 1 0 0 0 1 1 1 0
67 49.0 73.0 10.0 25.0 0 179 63 0 0 0 0 0 1 0 0 0 0
68 67.0 5.0 10.0 25.0 73 103 7 0 0 0 0 1 1 0 0 1 0
69 56.0 39.0 10.0 36.0 0 198 14 0 0 0 0 0 0 1 0 0 0
70 37.0 47.0 10.0 6.0 40 70 62 0 0 0 1 1 0 0 0 0 0
71 37.0 56.0 10.0 5.0 0 198 50 0 0 0 0 1 0 0 1 0 0
72 57.0 68.0 10.0 15.0 0 180 16 0 0 0 1 0 1 0 0 1 0
73 47.0 16.0 10.0 25.0 0 197 13 0 1 0 1 0 0 0 1 0 0
74 44.0 17.0 10.0 9.0 0 199 10 1 1 0 1 0 0 0 0 0 0
75 46.0 13.0 10.0 8.0 139 169 56 0 1 1 1 0 0 0 0 0 0
76 49.0 11.0 10.0 18.0 0 192 23 0 0 0 0 0 0 0 1 0 0
77 49.0 42.0 10.0 13.0 63 93 44 0 0 0 0 1 0 0 0 0 0
78 53.0 43.0 10.0 14.0 169 199 72 0 1 0 0 0 0 0 0 0 0
79 61.0 52.0 10.0 3.0 0 188 35 0 1 0 1 1 0 0 1 0 0
80 57.0 48.0 10.0 23.0 82 112 59 0 0 1 0 0 1 0 0 1 1
81 56.0 37.0 10.0 6.0 0 198 10 0 0 0 0 0 1 0 1 0 0
82 55.0 54.0 10.0 26.0 0 192 22 0 0 0 0 1 1 0 1 0 0
83 15.0 47.0 10.0 16.0 0 196 40 0 0 1 0 0 0 1 1 1 0
84 14.0 37.0 10.0 11.0 0 198 36 0 0 0 1 0 0 0 0 0 1
85 11.0 31.0 10.0 7.0 91 121 97 0 1 1 0 1 1 0 1 0 0
86 16.0 22.0 10.0 41.0 0 196 86 0 0 0 0 0 0 1 0 0 1
87 4.0 18.0 10.0 35.0 0 184 30 0 1 0 0 0 0 0 1 0 0
88 28.0 18.0 10.0 26.0 83 113 23 0 0 0 0 0 1 0 0 0 0
89 26.0 52.0 10.0 9.0 0 200 1 0 0 1 1 0 1 0 0 0 0
90 26.0 35.0 10.0 15.0 0 211 0 0 0 0 0 0 0 0 0 1 0
91 31.0 67.0 10.0 3.0 0 187 56 0 0 0 0 0 1 0 0 0 0
92 15.0 19.0 10.0 1.0 0 194 98 1 1 0 0 0 0 0 1 1 0
93 22.0 22.0 10.0 2.0 18 48 55 0 0 0 0 0 1 0 0 0 0
94 18.0 24.0 10.0 22.0 0 199 57 0 0 0 0 0 0 0 1 1 0
95 26.0 27.0 10.0 27.0 0 207 87 0 0 0 0 0 0 1 0 0 0
96 25.0 24.0 10.0 20.0 0 205 87 0 0 0 0 0 0 0 0 1 0
97 22.0 27.0 10.0 11.0 0 204 44 1 1 0 0 0 0 1 0 0 0
98 25.0 21.0 10.0 12.0 0 202 50 1 0 0 0 0 0 0 0 0 0
99 19.0 21.0 10.0 10.0 0 198 20 0 0 0 0 0 1 0 0 1 0
100 20.0 26.0 10.0 9.0 73 103 93 1 0 0 0 0 0 1 0 0 0
101 18.0 18.0 10.0 17.0 165 195 4 0 0 1 0 1 1 0 0 0 0